Problem:    
Rows:       260
Columns:    89 (72 integer, 72 binary)
Non-zeros:  812
Status:     INTEGER OPTIMAL
Objective:  value = 44.745633 (MINimum)

   No.   Row name        Activity     Lower bound   Upper bound
------ ------------    ------------- ------------- -------------
     1 r.5                   1044.75             0               
     2 r.6                  -989.929      -990.532               
     3 r.7                   44.7456             0               
     4 r.8                   14.6353      -980.042               
     5 r.9                   44.7456             0               
     6 r.10                  29.6205      -990.627               
     7 r.11                  1044.75             0               
     8 r.12                 -974.137      -980.092               
     9 r.13                  44.7456             0               
    10 r.14                 -998.732      -999.336               
    11 r.15                  1044.75             0               
    12 r.16                 -997.815      -998.418               
    13 r.17                  44.7456             0               
    14 r.18                  29.6205      -998.849               
    15 r.19                  1044.75             0               
    16 r.20                 -970.379      -996.243               
    17 r.21                  1044.75             0               
    18 r.22                 -985.365      -995.436               
    19 r.23                  44.7456             0               
    20 r.24                 -990.107       -990.71               
    21 r.25                  1044.75             0               
    22 r.26                 -999.397      -999.397               
    23 r.27                  44.7456             0               
    24 r.28                   0.6034      -998.632               
    25 r.29                  1044.75             0               
    26 r.30                 -955.254      -984.875               
    27 r.31                  44.7456             0               
    28 r.32                  44.7456      -961.627               
    29 r.33                  1044.75             0               
    30 r.34                 -970.379      -985.015               
    31 r.35                  44.7456             0               
    32 r.36                  44.7456      -963.065               
    33 r.37                        1             1             = 
    34 r.38                        1             1             = 
    35 r.39                        1             1             = 
    36 r.40                        1             1             = 
    37 r.41                        1             1             = 
    38 r.42                        1             1             = 
    39 r.43                        1             1             = 
    40 r.44                        1             1             = 
    41 r.45                     1001             2               
    42 r.46                    -1001         -1001               
    43 r.47                  2019.55      -990.627               
    44 r.48                     1001             2               
    45 r.49                    -1001         -1001               
    46 r.50                  2011.23      -980.092               
    47 r.51                     1001             2               
    48 r.52                    -1001         -1001               
    49 r.53                  991.197      -999.336               
    50 r.54                     1001             2               
    51 r.55                    -1001         -1001               
    52 r.56                  1987.55      -998.418               
    53 r.57                     1001             2               
    54 r.58                    -1001         -1001               
    55 r.59                  2019.55      -998.849               
    56 r.60                     1001             2               
    57 r.61                    -1001         -1001               
    58 r.62                  2014.99      -996.243               
    59 r.63                        2             2               
    60 r.64                       -2         -1001               
    61 r.65                 -995.436      -995.436               
    62 r.66                     1000             2               
    63 r.67                    -1000         -1001               
    64 r.68                  995.258       -990.71               
    65 r.69                 -990.532      -990.532               
    66 r.70                  14.0319      -980.042               
    67 r.71                 -990.532      -990.532               
    68 r.72                  14.0319      -980.042               
    69 r.73                 -965.326      -984.875               
    70 r.74                  34.6744      -961.627               
    71 r.75                  -969.89      -984.875               
    72 r.76                  30.1103      -961.627               
    73 r.77                 -980.451      -985.015               
    74 r.78                  34.6744      -963.065               
    75 r.79                 -985.015      -985.015               
    76 r.80                  30.1103      -963.065               
    77 r.81                     1001             2               
    78 r.82                    -1001         -1001               
    79 r.83                  1980.45        9.4678               
    80 r.84                     1001             2               
    81 r.85                    -1001         -1001               
    82 r.86                  1988.77       19.9582               
    83 r.87                     1000             2               
    84 r.88                    -1000         -1001               
    85 r.89                  971.647      -999.336               
    86 r.90                        2             2               
    87 r.91                       -2         -1001               
    88 r.92                 -23.6782      -998.418               
    89 r.93                     1000             2               
    90 r.94                    -1000         -1001               
    91 r.95                     2000      -998.849               
    92 r.96                        2             2               
    93 r.97                       -2         -1001               
    94 r.98                 -996.243      -996.243               
    95 r.99                     1001             2               
    96 r.100                   -1001         -1001               
    97 r.101                 1985.01      -995.436               
    98 r.102                    1001             2               
    99 r.103                   -1001         -1001               
   100 r.104                  984.03       -990.71               
   101 r.105                 29.0171      -990.627               
   102 r.106                 -974.74      -980.092               
   103 r.107                 29.0171      -990.627               
   104 r.108                 -974.74      -980.092               
   105 r.109                -984.875      -984.875               
   106 r.110                 15.1251      -961.627               
   107 r.111                -981.118      -984.875               
   108 r.112                 18.8824      -961.627               
   109 r.113                    1001             2               
   110 r.114                   -1001         -1001               
   111 r.115                    2000      -985.015               
   112 r.116                    1001             2               
   113 r.117                   -1001         -1001               
   114 r.118                 2018.88      -963.065               
   115 r.119                    1001             2               
   116 r.120                   -1001         -1001               
   117 r.121                  3008.8        9.4678               
   118 r.122                    1001             2               
   119 r.123                   -1001         -1001               
   120 r.124                 2012.45       19.9582               
   121 r.125                    1000             2               
   122 r.126                   -1000         -1001               
   123 r.127                 3028.35        9.3731               
   124 r.128                       2             2               
   125 r.129                      -2         -1001               
   126 r.130                 23.6782       19.9084               
   127 r.131                    1000             2               
   128 r.132                   -1000         -1001               
   129 r.133                 3028.35      -998.849               
   130 r.134                       2             2               
   131 r.135                      -2         -1001               
   132 r.136                -972.565      -996.243               
   133 r.137                    1001             2               
   134 r.138                   -1001         -1001               
   135 r.139                 3013.37      -995.436               
   136 r.140                    1001             2               
   137 r.141                   -1001         -1001               
   138 r.142                 1007.71       -990.71               
   139 r.143                -999.336      -999.336               
   140 r.144                -998.418      -998.418               
   141 r.145                -999.336      -999.336               
   142 r.146                -998.418      -998.418               
   143 r.147                 43.4778      -984.875               
   144 r.148                 1043.48      -961.627               
   145 r.149                -957.439      -984.875               
   146 r.150                 42.5606      -961.627               
   147 r.151                 28.3527      -985.015               
   148 r.152                 1043.48      -963.065               
   149 r.153                -972.565      -985.015               
   150 r.154                 42.5606      -963.065               
   151 r.155                    1001             2               
   152 r.156                   -1001         -1001               
   153 r.157                 1980.45        9.4678               
   154 r.158                    1001             2               
   155 r.159                   -1001         -1001               
   156 r.160                 1985.01       19.9582               
   157 r.161                    1000             2               
   158 r.162                   -1000         -1001               
   159 r.163                    2000        9.3731               
   160 r.164                       2             2               
   161 r.165                      -2         -1001               
   162 r.166                 996.243       19.9084               
   163 r.167                    1000             2               
   164 r.168                   -1000         -1001               
   165 r.169                 971.647      0.664444               
   166 r.170                       2             2               
   167 r.171                      -2         -1001               
   168 r.172                 972.565       1.58167               
   169 r.173                    1001             2               
   170 r.174                   -1001         -1001               
   171 r.175                 1985.01      -995.436               
   172 r.176                    1001             2               
   173 r.177                   -1001         -1001               
   174 r.178                 980.272       -990.71               
   175 r.179                 29.0171      -998.849               
   176 r.180                -970.983      -996.243               
   177 r.181                 29.0171      -998.849               
   178 r.182                -970.983      -996.243               
   179 r.183                -984.875      -984.875               
   180 r.184                 15.1251      -961.627               
   181 r.185                -984.875      -984.875               
   182 r.186                 15.1251      -961.627               
   183 r.187                    1001             2               
   184 r.188                   -1001         -1001               
   185 r.189                    2000      -985.015               
   186 r.190                    1001             2               
   187 r.191                   -1001         -1001               
   188 r.192                 2015.13      -963.065               
   189 r.193                       2             2               
   190 r.194                      -2         -1001               
   191 r.195                 995.436        9.4678               
   192 r.196                    1000             2               
   193 r.197                   -1000         -1001               
   194 r.198                 3004.74       19.9582               
   195 r.199                    1001             2               
   196 r.200                   -1001         -1001               
   197 r.201                 2014.99        9.3731               
   198 r.202                    1001             2               
   199 r.203                   -1001         -1001               
   200 r.204                 3015.97       19.9084               
   201 r.205                    1001             2               
   202 r.206                   -1001         -1001               
   203 r.207                 986.633      0.664444               
   204 r.208                    1001             2               
   205 r.209                   -1001         -1001               
   206 r.210                 2992.29       1.58167               
   207 r.211                    1001             2               
   208 r.212                   -1001         -1001               
   209 r.213                 2014.99       1.15124               
   210 r.214                    1001             2               
   211 r.215                   -1001         -1001               
   212 r.216                 3019.73       3.75728               
   213 r.217                -985.968      -995.436               
   214 r.218                 -990.71       -990.71               
   215 r.219                -985.968      -995.436               
   216 r.220                 -990.71       -990.71               
   217 r.221                       2             2               
   218 r.222                      -2         -1001               
   219 r.223                 -969.89      -984.875               
   220 r.224                    1000             2               
   221 r.225                   -1000         -1001               
   222 r.226                 3034.85      -961.627               
   223 r.227                -985.015      -985.015               
   224 r.228                 30.1103      -963.065               
   225 r.229                 19.7276      -985.015               
   226 r.230                 1034.85      -963.065               
   227 r.231                -955.858      -984.875               
   228 r.232                 44.1422      -961.627               
   229 r.233                -955.858      -984.875               
   230 r.234                 44.1422      -961.627               
   231 r.235                       2             2               
   232 r.236                      -2         -1001               
   233 r.237                  969.89       4.56413               
   234 r.238                    1000             2               
   235 r.239                   -1000         -1001               
   236 r.240                 965.147       9.28957               
   237 r.241                       2             2               
   238 r.242                      -2         -1001               
   239 r.243                -15.1251      -985.015               
   240 r.244                    1000             2               
   241 r.245                   -1000         -1001               
   242 r.246                    2000      -963.065               
   243 r.247                    1001             2               
   244 r.248                   -1001         -1001               
   245 r.249                    2000        9.3731               
   246 r.250                    1001             2               
   247 r.251                   -1001         -1001               
   248 r.252                 1981.12       19.9084               
   249 r.253                    1001             2               
   250 r.254                   -1001         -1001               
   251 r.255                    2000       1.15124               
   252 r.256                    1001             2               
   253 r.257                   -1001         -1001               
   254 r.258                 1984.87       3.75728               
   255 r.259                       2             2               
   256 r.260                      -2         -1001               
   257 r.261                 15.1251       15.1251               
   258 r.262                    1000             2               
   259 r.263                   -1000         -1001               
   260 r.264                    2000       38.3731               

   No. Column name       Activity     Lower bound   Upper bound
------ ------------    ------------- ------------- -------------
     1 tt                    44.7456             0               
     2 s_1_1        *              1             0             1 
     3 t_1_1                 34.6744             0               
     4 s_1_8        *              1             0             1 
     5 s_1_7        *              1             0             1 
     6 s_2_1        *              0             0             1 
     7 t_2_1                 30.1103             0               
     8 s_2_8        *              0             0             1 
     9 s_2_7        *              0             0             1 
    10 s_1_2        *              0             0             1 
    11 t_1_2                 15.1251             0               
    12 s_2_2        *              1             0             1 
    13 t_2_2                 18.8824             0               
    14 s_1_3        *              0             0             1 
    15 t_1_3                 1043.48             0               
    16 s_2_3        *              1             0             1 
    17 t_2_3                 42.5606             0               
    18 s_1_4        *              0             0             1 
    19 t_1_4                 15.1251             0               
    20 s_2_4        *              1             0             1 
    21 t_2_4                 15.1251             0               
    22 s_1_5        *              1             0             1 
    23 t_1_5                 30.1103             0               
    24 s_2_5        *              0             0             1 
    25 t_2_5                 1034.85             0               
    26 s_1_6        *              1             0             1 
    27 t_1_6                 44.1422             0               
    28 s_2_6        *              0             0             1 
    29 t_2_6                 44.1422             0               
    30 t_1_7                       0             0               
    31 t_2_7                       0             0               
    32 t_1_8                 15.1251             0               
    33 t_2_8                       0             0               
    34 r_1_1_2      *              1             0             1 
    35 u_1_1_2      *              0             0             1 
    36 r_2_1_2      *              1             0             1 
    37 u_2_1_2      *              0             0             1 
    38 r_1_1_3      *              1             0             1 
    39 u_1_1_3      *              0             0             1 
    40 r_2_1_3      *              1             0             1 
    41 u_2_1_3      *              0             0             1 
    42 r_1_1_4      *              1             0             1 
    43 u_1_1_4      *              0             0             1 
    44 r_2_1_4      *              1             0             1 
    45 u_2_1_4      *              0             0             1 
    46 r_1_1_5      *              0             0             1 
    47 u_1_1_5      *              1             0             1 
    48 r_2_1_5      *              1             0             1 
    49 u_2_1_5      *              0             0             1 
    50 r_1_2_3      *              1             0             1 
    51 u_1_2_3      *              0             0             1 
    52 r_2_2_3      *              0             0             1 
    53 u_2_2_3      *              0             0             1 
    54 r_1_2_4      *              1             0             1 
    55 u_1_2_4      *              0             0             1 
    56 r_2_2_4      *              0             0             1 
    57 u_2_2_4      *              1             0             1 
    58 r_1_2_5      *              1             0             1 
    59 u_1_2_5      *              0             0             1 
    60 r_2_2_5      *              1             0             1 
    61 u_2_2_5      *              0             0             1 
    62 r_1_2_8      *              1             0             1 
    63 u_1_2_8      *              0             0             1 
    64 r_2_2_8      *              1             0             1 
    65 u_2_2_8      *              0             0             1 
    66 r_1_3_4      *              1             0             1 
    67 u_1_3_4      *              0             0             1 
    68 r_2_3_4      *              0             0             1 
    69 u_2_3_4      *              1             0             1 
    70 r_1_3_5      *              1             0             1 
    71 u_1_3_5      *              0             0             1 
    72 r_2_3_5      *              1             0             1 
    73 u_2_3_5      *              0             0             1 
    74 r_1_4_5      *              1             0             1 
    75 u_1_4_5      *              0             0             1 
    76 r_2_4_5      *              1             0             1 
    77 u_2_4_5      *              0             0             1 
    78 r_1_4_8      *              1             0             1 
    79 u_1_4_8      *              0             0             1 
    80 r_2_4_8      *              1             0             1 
    81 u_2_4_8      *              0             0             1 
    82 r_1_5_7      *              0             0             1 
    83 u_1_5_7      *              1             0             1 
    84 r_2_5_7      *              1             0             1 
    85 u_2_5_7      *              0             0             1 
    86 r_1_7_8      *              0             0             1 
    87 u_1_7_8      *              0             0             1 
    88 r_2_7_8      *              1             0             1 
    89 u_2_7_8      *              0             0             1 

Integer feasibility conditions:

KKT.PE: max.abs.err = 4.55e-13 on row 135
        max.rel.err = 7.49e-17 on row 206
        High quality

KKT.PB: max.abs.err = 2.27e-13 on row 22
        max.rel.err = 2.27e-16 on row 22
        High quality

End of output
